\ This file has been generated by DOcplex
\ ENCODING=ISO-8859-1
\Problem name: random_problem.lp

Minimize
 obj: 84 x0 + 96 x1 + 87 x2 + 21 x3 + x4 + 61 x5 + 28 x6 + 56 x7 + 42 x8 + 66 x9
      + 60 x10 + 3 x11 + 30 x12 + 41 x13 + 32 x14 + 81 x15 + 17 x16 + 35 x17
      + 7 x18 + 42 x19 + 76 x20 + 36 x21 + 35 x22 + 6 x23 + 44 x24 + 45 x25
      + 25 x26 + 48 x27 + 8 x28 + 88 x29
Subject To
 c0: x1 + x5 + x7 + x9 + x18 + x22 + x24 + x25 = 1
 c1: x2 + x3 + x4 + x8 + x9 + x11 + x12 + x13 + x18 + x28 = 1
 c2: x0 + x3 + x4 + x8 + x9 + x11 + x13 + x15 + x16 + x21 + x24 + x25 + x27
     + x28 + x29 = 1
 c3: x3 + x4 + x5 + x6 + x7 + x9 + x12 + x18 = 1
 c4: x3 + x12 + x13 + x16 + x17 + x18 + x19 + x20 + x26 + x28 = 1
 c5: x2 + x8 + x11 + x19 + x26 = 1
 c6: x0 + x4 + x5 + x6 + x8 + x10 + x12 + x14 + x17 + x19 + x27 + x28 = 1
 c7: x2 + x3 + x4 + x11 + x14 + x26 + x28 + x29 = 1
 c8: x10 + x14 + x16 + x19 + x20 + x23 + x24 + x26 + x28 = 1
 c9: x1 + x7 + x10 + x13 + x15 + x18 + x21 + x24 + x26 + x28 = 1

Bounds
 0 <= x0 <= 1
 0 <= x1 <= 1
 0 <= x2 <= 1
 0 <= x3 <= 1
 0 <= x4 <= 1
 0 <= x5 <= 1
 0 <= x6 <= 1
 0 <= x7 <= 1
 0 <= x8 <= 1
 0 <= x9 <= 1
 0 <= x10 <= 1
 0 <= x11 <= 1
 0 <= x12 <= 1
 0 <= x13 <= 1
 0 <= x14 <= 1
 0 <= x15 <= 1
 0 <= x16 <= 1
 0 <= x17 <= 1
 0 <= x18 <= 1
 0 <= x19 <= 1
 0 <= x20 <= 1
 0 <= x21 <= 1
 0 <= x22 <= 1
 0 <= x23 <= 1
 0 <= x24 <= 1
 0 <= x25 <= 1
 0 <= x26 <= 1
 0 <= x27 <= 1
 0 <= x28 <= 1
 0 <= x29 <= 1

Binaries
 x0 x1 x2 x3 x4 x5 x6 x7 x8 x9 x10 x11 x12 x13 x14 x15 x16 x17 x18 x19 x20 x21
 x22 x23 x24 x25 x26 x27 x28 x29
End
